NAME : 10_3_3_3_(27).dat
COMMENT : Henke, Speranza, Wäscher, 2015
TYPE : MCVRP
DIMENSION : 11
EDGE_WEIGHT_TYPE : DISTANCE_MATRIX
CAPACITY : 1000
VEHICLES : 2
PRODUCT TYPES : 3
COMPARTMENTS : 3
NODE_COORD_SECTION
1 50 50
2 7.94 68.25
3 39.75 77.92
4 62.69 98.03
5 79.67 53.21
6 19.99 5.62
7 48.55 93.86
8 8.11 82.67
9 50.45 12.67
10 49.98 68.06
11 69.4 48.92
DEMAND_SECTION
1 0 0 0
2 11 65 23
3 118 9 36
4 27 46 9
5 38 64 7
6 138 49 25
7 115 65 48
8 15 35 49
9 32 12 17
10 117 53 47
11 139 51 38
DEPOT_SECTION
1
EOF